tsp_instances/TSP50/instance77.tsp
NODE_COORD_SECTION
0 81 144
1 52 191
2 57 102
3 160 115
4 16 78
5 187 34
6 32 95
7 176 151
8 184 24
9 92 120
10 30 162
11 186 10
12 141 88
13 171 55
14 177 75
15 68 164
16 199 54
17 111 125
18 157 46
19 76 148
20 155 131
21 85 107
22 199 198
23 115 34
24 12 113
25 137 148
26 149 124
27 107 149
28 159 124
29 120 131
30 173 200
31 140 190
32 121 18
33 161 106
34 153 105
35 96 44
36 185 158
37 109 138
38 43 87
39 146 134
40 197 72
41 51 143
42 178 65
43 43 97
44 53 188
45 185 194
46 69 72
47 128 158
48 140 90
49 184 122
