tsp_instances/TSP50/instance77.opt.tour
TOUR_SECTION
1
20
16
45
2
11
42
25
5
7
39
44
3
47
36
24
33
12
9
6
17
41
15
43
14
19
13
49
35
34
4
27
40
21
29
50
8
37
23
46
31
32
48
26
28
38
30
18
10
22
-1